g3 0 1 0	# problem d6n6R3R6d01d05
 6 8 1 0 3	# vars, constraints, objectives, ranges, eqns
 4 1	# nonlinear constraints, objectives
 0 0	# network constraints: nonlinear, linear
 6 6 6	# nonlinear vars in constraints, objectives, both
 0 0 0 1	# linear network variables; functions; arith, flags
 0 0 0 0 0	# discrete variables: binary, integer, nonlinear (b,c,o)
 39 6	# nonzeros in Jacobian, gradients
 0 0	# max name lengths: constraints, variables
 0 0 0 0 0	# common exprs: b,c,o,c1,o1
b
0 0.72 2.89
0 0.04 2.25
0 0.33 2.31
0 0.23 2.7
0 0.9 2.15
0 0.39 2.52
r
2 30.106
2 101.665
2 576.27
2 1365.73
4 12.508
4 33.711
4 11.501
2 21.475
C0
o2
o2
n3.1
v4
v4
C1
o54
7
o2
o2
n1.73
v4
v4
o2
o2
o2
n3.75
v0
v0
v3
o2
o2
o2
n4.52
v0
v2
v2
o2
o2
o2
n6.19
v2
v2
v4
o2
o2
o2
n6.86
v2
v3
v4
o16
o2
o2
o2
n0.56
v3
v3
v3
o2
o2
o2
n6.62
v3
v5
v5
C2
o54
26
o2
o2
n8.04
v4
v4
o2
o2
o2
n9.05
v0
v0
v3
o2
o2
o2
n4.27
v0
v2
v2
o2
o2
o2
n3.34
v2
v2
v4
o2
o2
o2
n4.34
v2
v3
v4
o2
o2
o2
n5.69
v3
v3
v3
o2
o2
o2
n5.25
v3
v5
v5
o2
o2
o2
o2
n5.75
v0
v0
v1
v5
o2
o2
o2
o2
n2.49
v0
v0
v2
v3
o2
o2
o2
o2
n2.01
v0
v0
v3
v5
o2
o2
o2
o2
n5.29
v0
v1
v1
v3
o2
o2
o2
o2
n1.92
v0
v1
v4
v5
o2
o2
o2
o2
n9.66
v0
v2
v2
v3
o2
o2
o2
o2
n1.67
v0
v2
v2
v5
o2
o2
o2
o2
n9.54
v0
v4
v4
v4
o2
o2
o2
o2
n8.71
v0
v5
v5
v5
o2
o2
o2
o2
n1.22
v1
v1
v1
v5
o2
o2
o2
o2
n4.54
v1
v2
v3
v4
o2
o2
o2
o2
n1.55
v1
v2
v3
v5
o2
o2
o2
o2
n0.79
v1
v3
v3
v4
o2
o2
o2
o2
n5.11
v1
v3
v3
v5
o2
o2
o2
o2
n6.39
v1
v3
v4
v5
o2
o2
o2
o2
n0.74
v2
v3
v3
v4
o2
o2
o2
o2
n8.46
v3
v3
v3
v5
o2
o2
o2
o2
n2.58
v3
v3
v5
v5
o2
o2
o2
o2
n4.95
v3
v4
v4
v4
C3
o54
50
o2
o2
n7.23
v4
v4
o16
o2
o2
o2
n2.18
v0
v0
v3
o2
o2
o2
n7.65
v0
v2
v2
o16
o2
o2
o2
n2.5
v2
v2
v4
o2
o2
o2
n6.68
v2
v3
v4
o2
o2
o2
n7.09
v3
v3
v3
o2
o2
o2
n1.89
v3
v5
v5
o2
o2
o2
o2
n3.15
v0
v0
v1
v5
o2
o2
o2
o2
n9.34
v0
v0
v2
v3
o2
o2
o2
o2
n6.93
v0
v0
v3
v5
o2
o2
o2
o2
n0.42
v0
v1
v1
v3
o2
o2
o2
o2
n7.82
v0
v1
v4
v5
o2
o2
o2
o2
n1.47
v0
v2
v2
v3
o2
o2
o2
o2
n7.33
v0
v2
v2
v5
o2
o2
o2
o2
n6.42
v0
v4
v4
v4
o2
o2
o2
o2
n5.53
v0
v5
v5
v5
o2
o2
o2
o2
n7.86
v1
v1
v1
v5
o2
o2
o2
o2
n2.99
v1
v2
v3
v4
o2
o2
o2
o2
n6.76
v1
v2
v3
v5
o16
o2
o2
o2
o2
n0.92
v1
v3
v3
v4
o2
o2
o2
o2
n6.22
v1
v3
v3
v5
o2
o2
o2
o2
n7.33
v1
v3
v4
v5
o2
o2
o2
o2
n9.51
v2
v3
v3
v4
o2
o2
o2
o2
n2.06
v3
v3
v3
v5
o2
o2
o2
o2
n7.81
v3
v3
v5
v5
o2
o2
o2
o2
n8.48
v3
v4
v4
v4
o2
o2
o2
o2
o2
n7.76
v0
v0
v0
v0
v2
o2
o2
o2
o2
o2
n4.6
v0
v0
v0
v1
v1
o2
o2
o2
o2
o2
n4.41
v0
v0
v0
v3
v4
o2
o2
o2
o2
o2
n1.55
v0
v0
v1
v2
v2
o2
o2
o2
o2
o2
n9.63
v0
v0
v1
v4
v5
o2
o2
o2
o2
o2
n2.09
v0
v0
v2
v2
v4
o2
o2
o2
o2
o2
n1.46
v0
v0
v2
v4
v4
o16
o2
o2
o2
o2
o2
n7.06
v0
v0
v3
v4
v5
o2
o2
o2
o2
o2
n4.59
v0
v0
v4
v5
v5
o2
o2
o2
o2
o2
n2.58
v0
v1
v2
v3
v5
o2
o2
o2
o2
o2
n7.45
v0
v1
v2
v4
v4
o2
o2
o2
o2
o2
n5.69
v0
v1
v3
v4
v4
o2
o2
o2
o2
o2
n5.97
v0
v1
v3
v5
v5
o16
o2
o2
o2
o2
o2
n1.48
v0
v2
v2
v2
v5
o2
o2
o2
o2
o2
n9.63
v0
v2
v3
v3
v3
o2
o2
o2
o2
o2
n9.23
v0
v3
v3
v4
v5
o2
o2
o2
o2
o2
n9.78
v1
v1
v1
v3
v4
o2
o2
o2
o2
o2
n0.66
v1
v1
v2
v2
v2
o2
o2
o2
o2
o2
n5.88
v1
v4
v4
v4
v4
o2
o2
o2
o2
o2
n7.85
v2
v2
v2
v4
v5
o2
o2
o2
o2
o2
n9.7
v2
v2
v2
v5
v5
o16
o2
o2
o2
o2
o2
n3.83
v2
v3
v5
v5
v5
o2
o2
o2
o2
o2
n2.92
v2
v4
v4
v5
v5
o2
o2
o2
o2
o2
n3.54
v3
v3
v3
v4
v5
C4
n0
C5
n0
C6
n0
C7
n0
O0 0
o54
92
o2
o2
n2.3
v4
v4
o16
o2
o2
o2
n1.84
v0
v0
v3
o2
o2
o2
n3.88
v0
v2
v2
o2
o2
o2
n4.68
v2
v2
v4
o2
o2
o2
n7.41
v2
v3
v4
o2
o2
o2
n4.38
v3
v3
v3
o2
o2
o2
n2.79
v3
v5
v5
o2
o2
o2
o2
n7.89
v0
v0
v1
v5
o2
o2
o2
o2
n3.22
v0
v0
v2
v3
o2
o2
o2
o2
n0.71
v0
v0
v3
v5
o2
o2
o2
o2
n9.34
v0
v1
v1
v3
o2
o2
o2
o2
n6.93
v0
v1
v4
v5
o2
o2
o2
o2
n1.34
v0
v2
v2
v3
o16
o2
o2
o2
o2
n0.31
v0
v2
v2
v5
o2
o2
o2
o2
n1.74
v0
v4
v4
v4
o2
o2
o2
o2
n1.92
v0
v5
v5
v5
o2
o2
o2
o2
n6.69
v1
v1
v1
v5
o2
o2
o2
o2
n4.65
v1
v2
v3
v4
o2
o2
o2
o2
n8.71
v1
v2
v3
v5
o2
o2
o2
o2
n9.78
v1
v3
v3
v4
o16
o2
o2
o2
o2
n8.45
v1
v3
v3
v5
o2
o2
o2
o2
n6
v1
v3
v4
v5
o2
o2
o2
o2
n8.56
v2
v3
v3
v4
o2
o2
o2
o2
n6.24
v3
v3
v3
v5
o2
o2
o2
o2
n7.25
v3
v3
v5
v5
o2
o2
o2
o2
n2.46
v3
v4
v4
v4
o2
o2
o2
o2
o2
n4.52
v0
v0
v0
v0
v2
o16
o2
o2
o2
o2
o2
n3.96
v0
v0
v0
v1
v1
o2
o2
o2
o2
o2
n8.71
v0
v0
v0
v3
v4
o2
o2
o2
o2
o2
n9.24
v0
v0
v1
v2
v2
o2
o2
o2
o2
o2
n6.37
v0
v0
v1
v4
v5
o2
o2
o2
o2
o2
n6.97
v0
v0
v2
v2
v4
o16
o2
o2
o2
o2
o2
n3.1
v0
v0
v2
v4
v4
o2
o2
o2
o2
o2
n6.21
v0
v0
v3
v4
v5
o2
o2
o2
o2
o2
n8.28
v0
v0
v4
v5
v5
o2
o2
o2
o2
o2
n1.29
v0
v1
v2
v3
v5
o2
o2
o2
o2
o2
n1.39
v0
v1
v2
v4
v4
o2
o2
o2
o2
o2
n1.66
v0
v1
v3
v4
v4
o16
o2
o2
o2
o2
o2
n2.91
v0
v1
v3
v5
v5
o2
o2
o2
o2
o2
n1.9
v0
v2
v2
v2
v5
o2
o2
o2
o2
o2
n7.4
v0
v2
v3
v3
v3
o2
o2
o2
o2
o2
n2.39
v0
v3
v3
v4
v5
o2
o2
o2
o2
o2
n1.76
v1
v1
v1
v3
v4
o2
o2
o2
o2
o2
n5.84
v1
v1
v2
v2
v2
o2
o2
o2
o2
o2
n6.34
v1
v4
v4
v4
v4
o2
o2
o2
o2
o2
n9.97
v2
v2
v2
v4
v5
o2
o2
o2
o2
o2
n1.79
v2
v2
v2
v5
v5
o2
o2
o2
o2
o2
n1.71
v2
v3
v5
v5
v5
o2
o2
o2
o2
o2
n9.49
v2
v4
v4
v5
v5
o2
o2
o2
o2
o2
n3.26
v3
v3
v3
v4
v5
o2
o2
o2
o2
o2
o2
n8.25
v0
v0
v0
v0
v0
v4
o16
o2
o2
o2
o2
o2
o2
n5.23
v0
v0
v0
v3
v5
v5
o2
o2
o2
o2
o2
o2
n5.22
v0
v0
v1
v1
v1
v1
o2
o2
o2
o2
o2
o2
n7.24
v0
v0
v1
v1
v2
v4
o2
o2
o2
o2
o2
o2
n3.78
v0
v0
v1
v3
v3
v5
o2
o2
o2
o2
o2
o2
n1.25
v0
v0
v2
v2
v2
v2
o2
o2
o2
o2
o2
o2
n6.17
v0
v0
v2
v3
v3
v3
o16
o2
o2
o2
o2
o2
o2
n8.02
v0
v0
v2
v3
v4
v5
o2
o2
o2
o2
o2
o2
n3.77
v0
v0
v2
v4
v4
v4
o2
o2
o2
o2
o2
o2
n1.85
v0
v1
v1
v1
v1
v5
o2
o2
o2
o2
o2
o2
n2.75
v0
v1
v1
v1
v3
v5
o2
o2
o2
o2
o2
o2
n4.14
v0
v1
v1
v1
v4
v4
o2
o2
o2
o2
o2
o2
n7.98
v0
v1
v2
v3
v3
v4
o2
o2
o2
o2
o2
o2
n0.79
v0
v1
v2
v3
v4
v4
o2
o2
o2
o2
o2
o2
n2.9
v0
v1
v3
v3
v5
v5
o2
o2
o2
o2
o2
o2
n4.1
v0
v2
v2
v2
v4
v5
o2
o2
o2
o2
o2
o2
n8.35
v0
v3
v3
v3
v3
v3
o2
o2
o2
o2
o2
o2
n4.15
v0
v4
v4
v5
v5
v5
o2
o2
o2
o2
o2
o2
n7.99
v1
v1
v1
v1
v1
v4
o2
o2
o2
o2
o2
o2
n0.18
v1
v1
v2
v3
v4
v4
o2
o2
o2
o2
o2
o2
n3.15
v1
v1
v3
v3
v4
v5
o2
o2
o2
o2
o2
o2
n7.25
v1
v1
v5
v5
v5
v5
o2
o2
o2
o2
o2
o2
n5.11
v1
v2
v2
v2
v2
v2
o2
o2
o2
o2
o2
o2
n8.43
v1
v2
v2
v3
v4
v5
o2
o2
o2
o2
o2
o2
n7.29
v1
v2
v2
v5
v5
v5
o2
o2
o2
o2
o2
o2
n7.84
v1
v2
v3
v3
v4
v4
o2
o2
o2
o2
o2
o2
n5.53
v1
v3
v3
v4
v4
v5
o2
o2
o2
o2
o2
o2
n4.98
v1
v3
v3
v4
v5
v5
o2
o2
o2
o2
o2
o2
n8.94
v1
v3
v4
v5
v5
v5
o2
o2
o2
o2
o2
o2
n5.46
v1
v4
v4
v4
v4
v4
o2
o2
o2
o2
o2
o2
n9.41
v2
v2
v2
v2
v5
v5
o2
o2
o2
o2
o2
o2
n8.61
v2
v2
v2
v3
v3
v5
o2
o2
o2
o2
o2
o2
n2.38
v2
v2
v2
v4
v4
v4
o2
o2
o2
o2
o2
o2
n7.18
v2
v2
v2
v4
v4
v5
o2
o2
o2
o2
o2
o2
n6.81
v2
v3
v3
v3
v4
v4
o2
o2
o2
o2
o2
o2
n9.5
v2
v3
v3
v3
v4
v5
o2
o2
o2
o2
o2
o2
n7.1
v2
v4
v4
v4
v5
v5
o2
o2
o2
o2
o2
o2
n9.42
v3
v3
v3
v3
v3
v3
o2
o2
o2
o2
o2
o2
n4.86
v3
v3
v3
v3
v3
v4
o2
o2
o2
o2
o2
o2
n4.26
v3
v3
v4
v4
v4
v4
o2
o2
o2
o2
o2
o2
n3.16
v3
v4
v5
v5
v5
v5
o2
o2
o2
o2
o2
o2
n6.2
v4
v4
v4
v4
v4
v5
k5
7
13
19
25
33
J0 6
0 5.89
1 7.69
2 4.85
3 -6.36
4 1.08
5 3.25
J1 6
0 -4.61
1 -2.63
2 5.53
3 2.49
4 3.77
5 3.24
J2 6
0 9.17
1 7.87
2 6.46
3 1.17
4 4.26
5 3.99
J3 6
0 6.24
1 1.76
2 5.04
3 2.06
4 6.92
5 0.83
J4 3
2 4.2
4 -2.78
5 7.7
J5 3
0 8.46
1 2.8
4 9.99
J6 3
0 8.56
3 3.82
4 -6.26
J7 6
0 5.91
1 5.8
2 -7.4
3 -1.64
4 9.31
5 1.47
G0 6
0 7.58
1 2.04
2 4.78
3 3.05
4 2
5 -8.43
